Ti64 Fe32
1.0
  11.2205220000000008    0.0000000000000000    0.0000000000000007
   0.0000000000000018   11.2205220000000008    0.0000000000000007
   0.0000000000000000    0.0000000000000000   11.2205220000000008
Ti Fe
64 32
direct
   0.6250000000000000    0.8750000000000000    0.3750000000000000 Ti
   0.3750000000000000    0.1250000000000000    0.3750000000000000 Ti
   0.8750000000000000    0.8750000000000000    0.1250000000000000 Ti
   0.1250000000000000    0.1250000000000000    0.1250000000000000 Ti
   0.0000000000000000    0.0000000000000000    0.3102520000000000 Ti
   0.5000000000000000    0.0000000000000000    0.1897480000000000 Ti
   0.5000000000000000    0.3102520000000000    0.5000000000000000 Ti
   0.5000000000000000    0.6897480000000000    0.5000000000000000 Ti
   0.8102520000000000    0.0000000000000000    0.5000000000000000 Ti
   0.1897480000000000    0.0000000000000000    0.5000000000000000 Ti
   0.2500000000000000    0.7500000000000000    0.4397480000000000 Ti
   0.2500000000000000    0.7500000000000000    0.0602520000000000 Ti
   0.2500000000000000    0.9397480000000000    0.2500000000000000 Ti
   0.2500000000000000    0.5602520000000000    0.2500000000000000 Ti
   0.4397480000000000    0.7500000000000000    0.2500000000000000 Ti
   0.0602520000000000    0.7500000000000000    0.2500000000000000 Ti
   0.6250000000000000    0.3750000000000000    0.8750000000000000 Ti
   0.3750000000000000    0.6250000000000000    0.8750000000000000 Ti
   0.8750000000000000    0.3750000000000000    0.6250000000000000 Ti
   0.1250000000000000    0.6250000000000000    0.6250000000000000 Ti
   0.0000000000000000    0.5000000000000000    0.8102520000000000 Ti
   0.5000000000000000    0.5000000000000000    0.6897480000000000 Ti
   0.5000000000000000    0.8102520000000000    0.0000000000000000 Ti
   0.5000000000000000    0.1897480000000000    0.0000000000000000 Ti
   0.8102520000000000    0.5000000000000000    0.0000000000000000 Ti
   0.1897480000000000    0.5000000000000000    0.0000000000000000 Ti
   0.2500000000000000    0.2500000000000000    0.9397480000000000 Ti
   0.2500000000000000    0.2500000000000000    0.5602520000000000 Ti
   0.2500000000000000    0.4397480000000000    0.7500000000000000 Ti
   0.2500000000000000    0.0602520000000000    0.7500000000000000 Ti
   0.4397480000000000    0.2500000000000000    0.7500000000000000 Ti
   0.0602520000000000    0.2500000000000000    0.7500000000000000 Ti
   0.1250000000000000    0.8750000000000000    0.8750000000000000 Ti
   0.8750000000000000    0.1250000000000000    0.8750000000000000 Ti
   0.3750000000000000    0.8750000000000000    0.6250000000000000 Ti
   0.6250000000000000    0.1250000000000000    0.6250000000000000 Ti
   0.5000000000000000    0.0000000000000000    0.8102520000000000 Ti
   0.0000000000000000    0.0000000000000000    0.6897480000000000 Ti
   0.0000000000000000    0.3102520000000000    0.0000000000000000 Ti
   0.0000000000000000    0.6897480000000000    0.0000000000000000 Ti
   0.3102520000000000    0.0000000000000000    0.0000000000000000 Ti
   0.6897480000000000    0.0000000000000000    0.0000000000000000 Ti
   0.7500000000000000    0.7500000000000000    0.9397480000000000 Ti
   0.7500000000000000    0.7500000000000000    0.5602520000000000 Ti
   0.7500000000000000    0.9397480000000000    0.7500000000000000 Ti
   0.7500000000000000    0.5602520000000000    0.7500000000000000 Ti
   0.9397480000000000    0.7500000000000000    0.7500000000000000 Ti
   0.5602520000000000    0.7500000000000000    0.7500000000000000 Ti
   0.1250000000000000    0.3750000000000000    0.3750000000000000 Ti
   0.8750000000000000    0.6250000000000000    0.3750000000000000 Ti
   0.3750000000000000    0.3750000000000000    0.1250000000000000 Ti
   0.6250000000000000    0.6250000000000000    0.1250000000000000 Ti
   0.5000000000000000    0.5000000000000000    0.3102520000000000 Ti
   0.0000000000000000    0.5000000000000000    0.1897480000000000 Ti
   0.0000000000000000    0.8102520000000000    0.5000000000000000 Ti
   0.0000000000000000    0.1897480000000000    0.5000000000000000 Ti
   0.3102520000000000    0.5000000000000000    0.5000000000000000 Ti
   0.6897480000000000    0.5000000000000000    0.5000000000000000 Ti
   0.7500000000000000    0.2500000000000000    0.4397480000000000 Ti
   0.7500000000000000    0.2500000000000000    0.0602520000000000 Ti
   0.7500000000000000    0.4397480000000000    0.2500000000000000 Ti
   0.7500000000000000    0.0602520000000000    0.2500000000000000 Ti
   0.9397480000000000    0.2500000000000000    0.2500000000000000 Ti
   0.5602520000000000    0.2500000000000000    0.2500000000000000 Ti
   0.9120193333333333    0.0879806666666666    0.0879806666666666 Fe
   0.0879806666666666    0.9120193333333333    0.0879806666666666 Fe
   0.5879806666666666    0.0879806666666667    0.4120193333333334 Fe
   0.4120193333333334    0.9120193333333333    0.4120193333333334 Fe
   0.3379806666666666    0.1620193333333334    0.1620193333333333 Fe
   0.1620193333333333    0.3379806666666666    0.1620193333333334 Fe
   0.1620193333333334    0.1620193333333333    0.3379806666666666 Fe
   0.3379806666666667    0.3379806666666666    0.3379806666666666 Fe
   0.9120193333333333    0.5879806666666666    0.5879806666666666 Fe
   0.0879806666666666    0.4120193333333333    0.5879806666666666 Fe
   0.5879806666666666    0.5879806666666667    0.9120193333333334 Fe
   0.4120193333333334    0.4120193333333333    0.9120193333333334 Fe
   0.3379806666666666    0.6620193333333334    0.6620193333333333 Fe
   0.1620193333333333    0.8379806666666666    0.6620193333333334 Fe
   0.1620193333333334    0.6620193333333333    0.8379806666666666 Fe
   0.3379806666666667    0.8379806666666666    0.8379806666666666 Fe
   0.4120193333333333    0.0879806666666666    0.5879806666666666 Fe
   0.5879806666666666    0.9120193333333333    0.5879806666666666 Fe
   0.0879806666666667    0.0879806666666667    0.9120193333333334 Fe
   0.9120193333333334    0.9120193333333333    0.9120193333333334 Fe
   0.8379806666666666    0.1620193333333334    0.6620193333333333 Fe
   0.6620193333333333    0.3379806666666666    0.6620193333333334 Fe
   0.6620193333333334    0.1620193333333333    0.8379806666666666 Fe
   0.8379806666666667    0.3379806666666666    0.8379806666666666 Fe
   0.4120193333333333    0.5879806666666666    0.0879806666666666 Fe
   0.5879806666666666    0.4120193333333333    0.0879806666666666 Fe
   0.0879806666666667    0.5879806666666667    0.4120193333333334 Fe
   0.9120193333333334    0.4120193333333333    0.4120193333333334 Fe
   0.8379806666666666    0.6620193333333334    0.1620193333333333 Fe
   0.6620193333333333    0.8379806666666666    0.1620193333333334 Fe
   0.6620193333333334    0.6620193333333333    0.3379806666666666 Fe
   0.8379806666666667    0.8379806666666666    0.3379806666666666 Fe
