Ti3 Fe1
1.0
   1.4992825685016817   -2.5968335835472782    0.0000000000000000
   1.4992825685016817    2.5968335835472782    0.0000000000000000
   0.0000000000000000    0.0000000000000000    8.0415569999999992
Ti Fe
3 1
direct
   0.6666666666666666    0.3333333333333333    0.5000000000000000 Ti
   0.3333333333333333    0.6666666666666666    0.2151150000000000 Ti
   0.3333333333333333    0.6666666666666667    0.7848850000000001 Ti
   0.6666666666666666    0.3333333333333333    0.0000000000000000 Fe
