Ti2 Fe2
1.0
   3.1503180000000000    0.0000000000000000    0.0000000000000002
   0.0000000000000007    4.4065197547270794    0.0000000000000003
   0.0000000000000000    0.0000000000000000    3.8410987877140048
Ti Fe
2 2
direct
   0.0000000000000000    0.0000000000000000    0.0000000000000000 Ti
   0.5000000000000000    0.5000000000000000    0.0000000000000000 Ti
   0.5000000000000000    0.0000000000000000    0.5000000000000000 Fe
   0.0000000000000000    0.5000000000000000    0.5000000000000000 Fe
