Ti2 Fe8
1.0
   2.5238212850423860    0.0000000000000000    0.0000000000000002
   0.0000000000000004    2.5238212850423860    0.0000000000000002
   0.0000000000000000    0.0000000000000000   18.8737972185832277
Ti Fe
2 8
direct
   0.0000000000000000    0.0000000000000000    0.0000000000000000 Ti
   0.5000000000000000    0.5000000000000000    0.5000000000000000 Ti
   0.0000000000000000    0.0000000000000000    0.3909085000000000 Fe
   0.5000000000000000    0.5000000000000000    0.2997525000000000 Fe
   0.0000000000000000    0.0000000000000000    0.2002475000000000 Fe
   0.5000000000000000    0.5000000000000000    0.1090915000000000 Fe
   0.5000000000000000    0.5000000000000000    0.8909085000000000 Fe
   0.0000000000000000    0.0000000000000000    0.7997525000000000 Fe
   0.5000000000000000    0.5000000000000000    0.7002475000000000 Fe
   0.0000000000000000    0.0000000000000000    0.6090915000000000 Fe
