Fe100
1.0
  10.4063305771877630    0.0000000000000000    0.0000000000000000
  -0.2173502484755064   10.4537312271665304    0.0000000000000000
  -0.0911099724439277   -0.3786834787528091   10.7015571026193168
Fe
100
direct
   0.5677809999999999    0.6039499999999999    0.5387140000000000 Fe
   0.8215360000000000    0.3724519999999999    0.7525330000000000 Fe
   0.8525980000000000    0.7381200000000000    0.1777729999999999 Fe
   0.1692680000000000    0.9605209999999998    0.3448639999999998 Fe
   0.7849300000000000    0.5830419999999999    0.8073959999999999 Fe
   0.7017800000000000    0.1219210000000000    0.2325479999999999 Fe
   0.3893360000000000    0.7375279999999999    0.5521369999999999 Fe
   0.0058430000000000    0.7768379999999999    0.5191600000000000 Fe
   0.9704739999999999    0.5448779999999999    0.6496779999999999 Fe
   0.0350370000000000    0.9618719999999998    0.7141289999999999 Fe
   0.2132630000000000    0.8967919999999999    0.5777009999999999 Fe
   0.1464410000000000    0.0851200000000000    0.8997969999999998 Fe
   0.9054590000000000    0.7670639999999999    0.7513389999999999 Fe
   0.0333100000000000    0.8734099999999999    0.9280029999999999 Fe
   0.1278920000000000    0.2392579999999999    0.3811499999999999 Fe
   0.4109930000000000    0.9468399999999999    0.4574009999999998 Fe
   0.4164930000000001    0.4837129999999999    0.8282189999999999 Fe
   0.0884480000000000    0.8279769999999999    0.1677060000000000 Fe
   0.8056150000000000    0.9595759999999999    0.8260540000000000 Fe
   0.5675800000000000    0.2179169999999999    0.0097000000000001 Fe
   0.5963529999999999    0.5057770000000000    0.3399449999999999 Fe
   0.3891269999999999    0.6171209999999999    0.0233469999999999 Fe
   0.2768580000000000    0.1205830000000000    0.4998099999999999 Fe
   0.5009820000000000    0.2774209999999999    0.7899490000000000 Fe
   0.1861910000000000    0.4754829999999999    0.9948389999999999 Fe
   0.6450860000000000    0.8734179999999999    0.9661660000000000 Fe
   0.3875490000000000    0.4838199999999999    0.2145339999999999 Fe
   0.6035070000000000    0.4777739999999999    0.7131400000000000 Fe
   0.8229590000000000    0.7610489999999999    0.9571089999999999 Fe
   0.9075120000000000    0.2001979999999999    0.0977600000000000 Fe
   0.9347800000000001    0.1487779999999999    0.8856329999999999 Fe
   0.3329300000000000    0.2966109999999999    0.6423920000000000 Fe
   0.0428680000000000    0.3520229999999999    0.7906650000000000 Fe
   0.4465530000000000    0.9084169999999999    0.6859390000000000 Fe
   0.2474900000000000    0.3109619999999999    0.1848899999999999 Fe
   0.7374430000000001    0.3335209999999999    0.1323950000000000 Fe
   0.3723799999999999    0.5062699999999999    0.6129759999999999 Fe
   0.8745849999999999    0.1255689999999999    0.6768789999999999 Fe
   0.6877790000000000    0.2492570000000000    0.6101469999999999 Fe
   0.9659430000000000    0.4690609999999999    0.4258389999999999 Fe
   0.0256410000000000    0.3978879999999999    0.1872650000000000 Fe
   0.2454940000000000    0.9576739999999999    0.0498429999999999 Fe
   0.4205460000000000    0.3851219999999999    0.0117420000000000 Fe
   0.5724830000000000    0.7282060000000000    0.1273710000000000 Fe
   0.0062030000000000    0.5955119999999999    0.8754229999999998 Fe
   0.5392160000000000    0.1475279999999999    0.4035699999999999 Fe
   0.9112620000000000    0.9217229999999998    0.3320529999999999 Fe
   0.9138730000000000    0.9664879999999999    0.0956420000000000 Fe
   0.3500360000000001    0.3226329999999999    0.3968559999999998 Fe
   0.6017920000000000    0.8203709999999999    0.5440539999999999 Fe
   0.3224460000000000    0.1012410000000000    0.7549599999999999 Fe
   0.2608650000000000    0.3035729999999999    0.8525940000000000 Fe
   0.6434170000000000    0.7856789999999999    0.7567689999999999 Fe
   0.8337990000000000    0.9049299999999999    0.5739639999999999 Fe
   0.6586830000000000    0.0202630000000000    0.6523650000000000 Fe
   0.2448610000000000    0.7497960000000000    0.3698069999999999 Fe
   0.9293250000000000    0.2933179999999999    0.5504770000000000 Fe
   0.1487940000000000    0.3863439999999999    0.5637119999999999 Fe
   0.1005700000000000    0.2704449999999999    0.0113980000000000 Fe
   0.7728620000000000    0.6814280000000000    0.6061139999999999 Fe
   0.6766560000000000    0.9386319999999999    0.3958269999999999 Fe
   0.5080840000000000    0.2802089999999999    0.2153420000000000 Fe
   0.7121270000000000    0.9005559999999999    0.1808510000000000 Fe
   0.7123210000000000    0.1895149999999999    0.8279850000000000 Fe
   0.3334760000000000    0.1064450000000000    0.2645399999999999 Fe
   0.0222300000000000    0.0535720000000000    0.4937409999999999 Fe
   0.7203590000000000    0.3120699999999999    0.3787999999999999 Fe
   0.3759230000000000    0.5651479999999999    0.4096539999999997 Fe
   0.5269170000000001    0.3648379999999999    0.5210870000000000 Fe
   0.5866790000000000    0.5030750000000000    0.1181850000000000 Fe
   0.6575450000000000    0.4040229999999999    0.9191030000000000 Fe
   0.0170840000000000    0.6611059999999999    0.3179799999999999 Fe
   0.8111169999999999    0.5159619999999999    0.2600099999999998 Fe
   0.3475910000000000    0.8152579999999999    0.1771749999999999 Fe
   0.5816290000000000    0.6328869999999999    0.9108299999999999 Fe
   0.2134310000000000    0.6196700000000001    0.1818579999999999 Fe
   0.7321340000000000    0.0765960000000000    0.0156290000000000 Fe
   0.5074300000000000    0.9592689999999999    0.2707800000000000 Fe
   0.7622090000000000    0.7072500000000000    0.3858119999999999 Fe
   0.1240250000000000    0.7353000000000000    0.7315159999999999 Fe
   0.3302850000000000    0.1727170000000000    0.0282160000000000 Fe
   0.1997180000000000    0.5200459999999999    0.7645159999999999 Fe
   0.9028590000000000    0.3925339999999999    0.9715480000000000 Fe
   0.4803300000000000    0.1307629999999999    0.6053850000000000 Fe
   0.1997240000000000    0.7234770000000000    0.9677589999999998 Fe
   0.4895990000000000    0.0115050000000000    0.0793639999999999 Fe
   0.7794480000000000    0.5661649999999999    0.0354449999999999 Fe
   0.9164610000000000    0.2146439999999999    0.3124019999999998 Fe
   0.5312340000000000    0.0388240000000000    0.8522770000000000 Fe
   0.1785630000000000    0.4760619999999999    0.3492729999999999 Fe
   0.1015940000000000    0.1068660000000000    0.1748309999999999 Fe
   0.3641090000000000    0.6943680000000000    0.7673629999999999 Fe
   0.7597120000000001    0.4695089999999999    0.5322319999999999 Fe
   0.2537530000000000    0.9011129999999999    0.8197949999999999 Fe
   0.4318060000000000    0.8327839999999999    0.9406219999999998 Fe
   0.1723110000000000    0.6170589999999999    0.5394320000000000 Fe
   0.1207730000000000    0.1759940000000000    0.6693939999999999 Fe
   0.7880020000000000    0.1077420000000000    0.4648689999999999 Fe
   0.5063680000000000    0.7400239999999999    0.3426759999999999 Fe
   0.0041640000000000    0.6028340000000000    0.0900189999999999 Fe
