Fe28
1.0
   8.6179009999999998    0.0000000000000000    0.0000000000000005
   0.0000000000000014    8.6179009999999998    0.0000000000000005
   0.0000000000000000    0.0000000000000000    4.5744720000000001
Fe
28
direct
   0.0950920000000000    0.9049080000000000    0.5000000000000000 Fe
   0.9049080000000000    0.0950920000000000    0.5000000000000000 Fe
   0.4049080000000000    0.4049080000000000    0.0000000000000000 Fe
   0.5950920000000000    0.5950920000000000    0.0000000000000000 Fe
   0.3667570000000000    0.9809070000000000    0.5000000000000000 Fe
   0.6332430000000000    0.0190930000000000    0.5000000000000000 Fe
   0.1332430000000000    0.4809070000000000    0.0000000000000000 Fe
   0.8667570000000000    0.5190930000000000    0.0000000000000000 Fe
   0.9809070000000000    0.3667570000000000    0.5000000000000000 Fe
   0.0190930000000000    0.6332430000000000    0.5000000000000000 Fe
   0.4809070000000000    0.1332430000000000    0.0000000000000000 Fe
   0.5190930000000000    0.8667570000000000    0.0000000000000000 Fe
   0.4685780000000000    0.2707360000000000    0.5000000000000000 Fe
   0.5314220000000001    0.7292640000000000    0.5000000000000000 Fe
   0.0314220000000000    0.7707360000000000    0.0000000000000000 Fe
   0.9685779999999999    0.2292640000000000    0.0000000000000000 Fe
   0.2707360000000000    0.4685780000000000    0.5000000000000000 Fe
   0.7292640000000000    0.5314220000000001    0.5000000000000000 Fe
   0.7707360000000000    0.0314220000000000    0.0000000000000000 Fe
   0.2292640000000000    0.9685779999999999    0.0000000000000000 Fe
   0.2846120000000000    0.7153880000000000    0.2456160000000000 Fe
   0.7153880000000000    0.2846120000000000    0.2456160000000000 Fe
   0.2153879999999999    0.2153880000000000    0.7456160000000001 Fe
   0.7846120000000000    0.7846120000000000    0.7456160000000001 Fe
   0.7153880000000000    0.2846120000000000    0.7543839999999999 Fe
   0.2846120000000000    0.7153880000000000    0.7543839999999999 Fe
   0.7846120000000000    0.7846120000000000    0.2543840000000000 Fe
   0.2153879999999999    0.2153880000000000    0.2543840000000000 Fe
