Ti4 Fe8
1.0
   2.4227816167249596   -4.1963808558114959    0.0000000000000000
   2.4227816167249596    4.1963808558114959    0.0000000000000000
   0.0000000000000000    0.0000000000000000    7.8382935200000388
Ti Fe
4 8
direct
   0.6666666666666666    0.3333333333333333    0.9396560200000001 Ti
   0.3333333333333333    0.6666666666666666    0.4396560200000001 Ti
   0.3333333333333334    0.6666666666666667    0.0603439799999999 Ti
   0.6666666666666667    0.3333333333333334    0.5603439799999999 Ti
   0.8310446550000000    0.1689553450000000    0.2500000000000000 Fe
   0.1689553450000000    0.8310446550000000    0.7500000000000000 Fe
   0.1689553450000000    0.3379106900000000    0.7500000000000000 Fe
   0.3379106900000000    0.1689553450000000    0.2500000000000000 Fe
   0.8310446550000000    0.6620893100000000    0.2500000000000000 Fe
   0.6620893100000000    0.8310446550000000    0.7500000000000000 Fe
   0.0000000000000000    0.0000000000000000    0.0000000000000000 Fe
   0.0000000000000000    0.0000000000000000    0.5000000000000000 Fe
